Results/Experiment 1 Results/Existing Benchmark/RES_60/i-60-50-16.txt
solutions: 1 nodes: 1  modelTime: 115  solveTime: 18  totalTime: 140  modelSize: 7849  readTime: 7 matchingSize: 30
