Results/Experiment 2 Results/Existing Benchmark/i-60-50-16.lp
clingo version 5.4.0
Reading from tempSRTISolver.lp ...
Solving...
Answer: 1
matched(41,1) matched(35,2) matched(7,3) matched(47,4) matched(8,5) matched(16,6) matched(3,7) matched(5,8) matched(33,9) matched(27,10) matched(55,11) matched(29,12) matched(17,13) matched(20,14) matched(51,15) matched(6,16) matched(13,17) matched(54,18) matched(30,19) matched(14,20) matched(43,21) matched(24,22) matched(60,23) matched(22,24) matched(44,25) matched(46,26) matched(10,27) matched(53,28) matched(12,29) matched(19,30) matched(39,31) matched(45,32) matched(9,33) matched(38,34) matched(2,35) matched(49,36) matched(48,37) matched(34,38) matched(31,39) matched(50,40) matched(1,41) matched(52,42) matched(21,43) matched(25,44) matched(32,45) matched(26,46) matched(4,47) matched(37,48) matched(36,49) matched(40,50) matched(15,51) matched(42,52) matched(28,53) matched(18,54) matched(11,55) matched(57,56) matched(56,57) matched(59,58) matched(58,59) matched(23,60)
Optimization: 347
OPTIMUM FOUND

Models       : 1
  Optimum    : yes
Optimization : 347
Calls        : 1
Time         : 0.895s (Solving: 0.07s 1st Model: 0.06s Unsat: 0.02s)
CPU Time     : 0.895s
